0 4960.13
1 4834.48
2 4834.48
3 4834.48
4 4827.86
5 4756.85
6 4723.76
7 4723.76
8 4723.76
9 4723.76
10 4723.76
11 4632.91
12 4632.91
13 4632.91
14 4632.91
15 4632.91
16 4632.91
17 4630.79
18 4630.79
19 4630.79
20 4630.79
21 4630.79
22 4630.79
23 4630.79
24 4630.79
25 4630.79
26 4599.46
27 4599.46
28 4599.46
29 4599.46
30 4599.46
31 4599.46
32 4599.46
33 4599.46
34 4599.46
35 4599.46
36 4599.46
37 4599.46
38 4599.46
39 4599.46
40 4599.46
41 4599.46
42 4599.46
43 4599.46
44 4599.46
45 4599.46
46 4599.46
47 4599.46
48 4599.46
49 4599.46
50 4599.46
51 4599.46
52 4599.46
53 4599.46
54 4599.46
55 4599.46
56 4599.46
57 4599.46
58 4599.46
59 4599.46
60 4599.46
61 4599.46
62 4599.46
63 4599.46
64 4599.46
65 4599.46
66 4592.90
67 4592.90
68 4592.90
69 4592.90
70 4592.90
71 4592.90
72 4592.90
73 4592.90
74 4592.90
75 4592.90
76 4592.90
77 4592.90
78 4592.90
79 4592.90
80 4592.90
81 4592.90
82 4592.90
83 4592.90
84 4592.90
85 4592.90
86 4592.90
87 4592.90
88 4592.90
89 4592.90
90 4592.90
91 4592.90
92 4592.90
93 4592.90
94 4592.90
95 4592.90
96 4592.90
97 4592.90
98 4592.90
99 4592.90
100 4592.90
101 4592.90
102 4592.90
103 4592.90
104 4592.90
105 4592.90
106 4592.90
107 4592.90
108 4592.90
109 4592.90
110 4592.90
111 4592.90
112 4592.90
113 4592.90
114 4592.90
115 4585.43
116 4585.43
117 4585.43
118 4585.43
119 4585.43
120 4585.43
121 4585.43
122 4585.43
123 4585.43
124 4585.43
125 4585.43
126 4585.43
127 4585.43
128 4585.43
129 4585.43
130 4585.43
131 4585.43
132 4585.43
133 4585.43
134 4585.43
135 4585.43
136 4585.43
137 4585.43
138 4585.43
139 4585.43
140 4585.43
141 4585.43
142 4585.43
143 4585.43
144 4585.43
145 4585.43
146 4585.43
147 4585.43
148 4585.43
149 4585.43
150 4585.43
151 4585.43
152 4585.43
153 4585.43
154 4585.43
155 4583.72
156 4583.72
157 4583.72
158 4583.72
159 4583.72
160 4583.72
161 4582.17
162 4582.17
163 4582.17
164 4582.17
165 4582.17
166 4582.17
167 4582.17
168 4582.17
169 4582.17
170 4582.17
171 4582.17
172 4582.17
173 4582.17
174 4582.17
175 4582.17
176 4582.17
177 4582.17
178 4582.17
179 4582.17
180 4582.17
181 4582.17
182 4582.17
183 4582.17
184 4582.17
185 4582.17
186 4582.17
187 4582.17
188 4582.17
189 4582.17
190 4582.17
191 4582.17
192 4582.17
193 4582.17
194 4582.17
195 4582.17
196 4582.17
197 4582.17
198 4582.17
199 4582.17
200 4582.17
201 4582.17
202 4582.17
203 4582.17
204 4582.17
205 4582.17
206 4582.17
207 4582.17
208 4582.17
209 4579.94
210 4579.94
211 4579.94
212 4579.94
213 4579.94
214 4579.94
215 4579.94
216 4579.94
217 4579.94
218 4579.94
219 4579.94
220 4579.94
221 4579.94
222 4579.94
223 4579.94
224 4579.94
225 4579.94
226 4579.94
227 4579.94
228 4579.94
229 4579.94
230 4579.94
231 4579.94
232 4579.94
233 4579.94
234 4579.94
235 4579.94
236 4579.94
237 4579.94
238 4579.94
239 4579.94
240 4579.94
241 4579.94
242 4579.94
243 4579.94
244 4579.94
245 4579.94
246 4579.94
247 4579.94
248 4579.94
249 4579.94
250 4579.94
251 4579.94
252 4579.94
253 4579.94
254 4579.94
255 4579.94
256 4579.94
257 4579.94
258 4579.94
259 4579.94
260 4579.94
261 4579.94
262 4579.94
263 4579.94
264 4579.94
265 4579.94
266 4579.94
267 4579.94
268 4579.94
269 4579.94
270 4579.94
271 4579.94
272 4579.94
273 4579.94
274 4579.94
275 4579.94
276 4579.94
277 4579.94
278 4579.94
279 4579.94
280 4579.94
281 4579.94
282 4579.94
283 4579.94
284 4579.94
285 4579.94
286 4579.94
287 4579.94
288 4579.94
289 4579.94
290 4579.94
291 4579.94
292 4579.94
293 4579.94
294 4579.94
295 4579.94
296 4579.94
297 4579.94
298 4579.94
299 4579.94
300 4579.94
301 4579.94
302 4579.94
303 4579.94
304 4579.94
305 4579.94
306 4579.94
307 4579.94
308 4579.94
309 4579.94
310 4579.94
311 4579.94
312 4579.94
313 4579.94
314 4579.94
315 4579.94
316 4579.94
317 4579.94
318 4579.94
319 4579.94
320 4579.94
321 4579.94
322 4579.94
323 4579.94
324 4579.94
325 4579.94
326 4579.94
327 4579.94
328 4579.94
329 4579.94
330 4579.94
331 4579.94
332 4579.94
333 4579.94
334 4579.94
335 4579.94
336 4579.94
337 4579.94
338 4579.94
339 4579.94
340 4579.94
341 4579.94
342 4579.94
343 4579.94
344 4579.94
345 4579.94
346 4579.94
347 4579.94
348 4579.94
349 4579.94
350 4579.94
351 4579.94
352 4579.94
353 4579.94
354 4579.94
355 4579.94
356 4579.94
357 4579.94
358 4579.94
359 4579.94
360 4579.94
361 4579.94
362 4579.94
363 4579.94
364 4579.94
365 4579.94
366 4579.94
367 4579.94
368 4579.94
369 4579.94
370 4579.94
371 4579.94
372 4579.94
373 4579.94
374 4579.94
375 4579.94
376 4579.94
377 4579.94
378 4579.94
379 4579.94
380 4579.94
381 4579.94
382 4579.94
383 4579.94
384 4579.94
385 4579.94
386 4579.94
387 4579.94
388 4579.94
389 4579.94
390 4579.94
391 4579.94
392 4579.94
393 4579.94
394 4579.94
395 4579.94
396 4579.94
397 4579.94
398 4579.94
399 4579.94
400 4579.94
401 4579.94
402 4579.94
403 4579.94
404 4579.94
405 4579.94
406 4579.94
407 4579.94
408 4579.94
409 4579.94
410 4579.94
411 4579.94
412 4579.94
413 4579.94
414 4579.94
415 4579.94
416 4579.94
417 4579.94
418 4579.94
419 4579.94
420 4579.94
421 4579.94
422 4579.94
423 4579.94
424 4579.94
425 4579.94
426 4579.94
427 4579.94
428 4579.94
429 4579.94
430 4579.94
431 4579.94
432 4579.94
433 4579.94
434 4579.94
435 4579.94
436 4579.94
437 4579.94
438 4579.94
439 4579.94
440 4579.94
441 4579.94
442 4579.94
443 4579.94
444 4579.94
445 4579.94
446 4579.94
447 4579.94
448 4579.94
449 4579.94
450 4579.94
451 4579.94
452 4579.94
453 4579.94
454 4579.94
455 4579.94
456 4579.94
457 4579.94
458 4579.94
459 4579.94
460 4579.94
461 4579.94
462 4579.94
463 4579.94
464 4579.94
465 4579.94
466 4579.94
467 4579.94
468 4579.94
469 4579.94
470 4579.94
471 4579.94
472 4579.94
473 4579.94
474 4579.94
475 4579.94
476 4579.94
477 4579.94
478 4579.94
479 4579.94
480 4579.94
481 4579.94
482 4579.94
483 4579.94
484 4579.94
485 4579.94
486 4579.94
487 4579.94
488 4579.94
489 4579.94
490 4579.94
491 4579.94
492 4579.94
493 4579.94
494 4579.94
495 4579.94
496 4579.94
497 4579.94
498 4579.94
499 4579.94
2 5 9 4 0 0 